(set-option :produce-models true)
(set-logic QF_LRA)
(set-info :notes | Strip-packing problem.|)
(declare-fun x0 () Real)
(declare-fun y0 () Real)
(declare-fun x1 () Real)
(declare-fun y1 () Real)
(declare-fun x2 () Real)
(declare-fun y2 () Real)
(declare-fun x3 () Real)
(declare-fun y3 () Real)
(declare-fun x4 () Real)
(declare-fun y4 () Real)
(declare-fun x5 () Real)
(declare-fun y5 () Real)
(declare-fun x6 () Real)
(declare-fun y6 () Real)
(declare-fun x7 () Real)
(declare-fun y7 () Real)
(declare-fun x8 () Real)
(declare-fun y8 () Real)
(declare-fun x9 () Real)
(declare-fun y9 () Real)
(declare-fun x10 () Real)
(declare-fun y10 () Real)
(declare-fun x11 () Real)
(declare-fun y11 () Real)
(declare-fun z () Real)
(declare-fun c () Real)
(assert (and (= c z) (and (>= x0 0) 
(and (>= y0 0) 
(and (>= x1 0) 
(and (>= y1 0) 
(and (>= x2 0) 
(and (>= y2 0) 
(and (>= x3 0) 
(and (>= y3 0) 
(and (>= x4 0) 
(and (>= y4 0) 
(and (>= x5 0) 
(and (>= y5 0) 
(and (>= x6 0) 
(and (>= y6 0) 
(and (>= x7 0) 
(and (>= y7 0) 
(and (>= x8 0) 
(and (>= y8 0) 
(and (>= x9 0) 
(and (>= y9 0) 
(and (>= x10 0) 
(and (>= y10 0) 
(and (>= x11 0) 
(and (>= y11 0) 
(and (>= z 0) 
(and (>= c 0) 
(and (<= (+ x0 0.8833494666) z) 
(and (<= 0.9911943741 y0) 
(and (<= y0 1.73205080757) 
(and (<= x0 (- 4.7817362917 0.8833494666)) 
(and (>= x0 0) 
(and (<= (+ x1 0.7748404794) z) 
(and (<= 0.9709027467 y1) 
(and (<= y1 1.73205080757) 
(and (<= x1 (- 4.7817362917 0.7748404794)) 
(and (>= x1 0) 
(and (<= (+ x2 0.9299333126) z) 
(and (<= 0.9053724537 y2) 
(and (<= y2 1.73205080757) 
(and (<= x2 (- 4.7817362917 0.9299333126)) 
(and (>= x2 0) 
(and (<= (+ x3 0.0410767547) z) 
(and (<= 0.8922831346 y3) 
(and (<= y3 1.73205080757) 
(and (<= x3 (- 4.7817362917 0.0410767547)) 
(and (>= x3 0) 
(and (<= (+ x4 0.3827800441) z) 
(and (<= 0.8879901729 y4) 
(and (<= y4 1.73205080757) 
(and (<= x4 (- 4.7817362917 0.3827800441)) 
(and (>= x4 0) 
(and (<= (+ x5 0.1379633835) z) 
(and (<= 0.8233343558 y5) 
(and (<= y5 1.73205080757) 
(and (<= x5 (- 4.7817362917 0.1379633835)) 
(and (>= x5 0) 
(and (<= (+ x6 0.3086903716) z) 
(and (<= 0.6738801274 y6) 
(and (<= y6 1.73205080757) 
(and (<= x6 (- 4.7817362917 0.3086903716)) 
(and (>= x6 0) 
(and (<= (+ x7 0.6215734289) z) 
(and (<= 0.5949522647 y7) 
(and (<= y7 1.73205080757) 
(and (<= x7 (- 4.7817362917 0.6215734289)) 
(and (>= x7 0) 
(and (<= (+ x8 0.8433096649) z) 
(and (<= 0.4862867915 y8) 
(and (<= y8 1.73205080757) 
(and (<= x8 (- 4.7817362917 0.8433096649)) 
(and (>= x8 0) 
(and (<= (+ x9 0.5914641207) z) 
(and (<= 0.4580279909 y9) 
(and (<= y9 1.73205080757) 
(and (<= x9 (- 4.7817362917 0.5914641207)) 
(and (>= x9 0) 
(and (<= (+ x10 0.0105070896) z) 
(and (<= 0.3064897386 y10) 
(and (<= y10 1.73205080757) 
(and (<= x10 (- 4.7817362917 0.0105070896)) 
(and (>= x10 0) 
(and (<= (+ x11 0.9264465694) z) 
(and (<= 0.1584771031 y11) 
(and (<= y11 1.73205080757) 
(and (<= x11 (- 4.7817362917 0.9264465694)) 
(and (>= x11 0) 
(and (<= c 4.7817362917) 
(and (or (<= (+ x0 0.8833494666) x1) (or (<= (+ x1 0.7748404794) x0) (or (>= (- y0 0.9911943741) y1) (or (>= (- y1 0.9709027467) y0))))) 
(and (or (<= (+ x0 0.8833494666) x2) (or (<= (+ x2 0.9299333126) x0) (or (>= (- y0 0.9911943741) y2) (or (>= (- y2 0.9053724537) y0))))) 
(and (or (<= (+ x0 0.8833494666) x3) (or (<= (+ x3 0.0410767547) x0) (or (>= (- y0 0.9911943741) y3) (or (>= (- y3 0.8922831346) y0))))) 
(and (or (<= (+ x0 0.8833494666) x4) (or (<= (+ x4 0.3827800441) x0) (or (>= (- y0 0.9911943741) y4) (or (>= (- y4 0.8879901729) y0))))) 
(and (or (<= (+ x0 0.8833494666) x5) (or (<= (+ x5 0.1379633835) x0) (or (>= (- y0 0.9911943741) y5) (or (>= (- y5 0.8233343558) y0))))) 
(and (or (<= (+ x0 0.8833494666) x6) (or (<= (+ x6 0.3086903716) x0) (or (>= (- y0 0.9911943741) y6) (or (>= (- y6 0.6738801274) y0))))) 
(and (or (<= (+ x0 0.8833494666) x7) (or (<= (+ x7 0.6215734289) x0) (or (>= (- y0 0.9911943741) y7) (or (>= (- y7 0.5949522647) y0))))) 
(and (or (<= (+ x0 0.8833494666) x8) (or (<= (+ x8 0.8433096649) x0) (or (>= (- y0 0.9911943741) y8) (or (>= (- y8 0.4862867915) y0))))) 
(and (or (<= (+ x0 0.8833494666) x9) (or (<= (+ x9 0.5914641207) x0) (or (>= (- y0 0.9911943741) y9) (or (>= (- y9 0.4580279909) y0))))) 
(and (or (<= (+ x0 0.8833494666) x10) (or (<= (+ x10 0.0105070896) x0) (or (>= (- y0 0.9911943741) y10) (or (>= (- y10 0.3064897386) y0))))) 
(and (or (<= (+ x0 0.8833494666) x11) (or (<= (+ x11 0.9264465694) x0) (or (>= (- y0 0.9911943741) y11) (or (>= (- y11 0.1584771031) y0))))) 
(and (or (<= (+ x1 0.7748404794) x2) (or (<= (+ x2 0.9299333126) x1) (or (>= (- y1 0.9709027467) y2) (or (>= (- y2 0.9053724537) y1))))) 
(and (or (<= (+ x1 0.7748404794) x3) (or (<= (+ x3 0.0410767547) x1) (or (>= (- y1 0.9709027467) y3) (or (>= (- y3 0.8922831346) y1))))) 
(and (or (<= (+ x1 0.7748404794) x4) (or (<= (+ x4 0.3827800441) x1) (or (>= (- y1 0.9709027467) y4) (or (>= (- y4 0.8879901729) y1))))) 
(and (or (<= (+ x1 0.7748404794) x5) (or (<= (+ x5 0.1379633835) x1) (or (>= (- y1 0.9709027467) y5) (or (>= (- y5 0.8233343558) y1))))) 
(and (or (<= (+ x1 0.7748404794) x6) (or (<= (+ x6 0.3086903716) x1) (or (>= (- y1 0.9709027467) y6) (or (>= (- y6 0.6738801274) y1))))) 
(and (or (<= (+ x1 0.7748404794) x7) (or (<= (+ x7 0.6215734289) x1) (or (>= (- y1 0.9709027467) y7) (or (>= (- y7 0.5949522647) y1))))) 
(and (or (<= (+ x1 0.7748404794) x8) (or (<= (+ x8 0.8433096649) x1) (or (>= (- y1 0.9709027467) y8) (or (>= (- y8 0.4862867915) y1))))) 
(and (or (<= (+ x1 0.7748404794) x9) (or (<= (+ x9 0.5914641207) x1) (or (>= (- y1 0.9709027467) y9) (or (>= (- y9 0.4580279909) y1))))) 
(and (or (<= (+ x1 0.7748404794) x10) (or (<= (+ x10 0.0105070896) x1) (or (>= (- y1 0.9709027467) y10) (or (>= (- y10 0.3064897386) y1))))) 
(and (or (<= (+ x1 0.7748404794) x11) (or (<= (+ x11 0.9264465694) x1) (or (>= (- y1 0.9709027467) y11) (or (>= (- y11 0.1584771031) y1))))) 
(and (or (<= (+ x2 0.9299333126) x3) (or (<= (+ x3 0.0410767547) x2) (or (>= (- y2 0.9053724537) y3) (or (>= (- y3 0.8922831346) y2))))) 
(and (or (<= (+ x2 0.9299333126) x4) (or (<= (+ x4 0.3827800441) x2) (or (>= (- y2 0.9053724537) y4) (or (>= (- y4 0.8879901729) y2))))) 
(and (or (<= (+ x2 0.9299333126) x5) (or (<= (+ x5 0.1379633835) x2) (or (>= (- y2 0.9053724537) y5) (or (>= (- y5 0.8233343558) y2))))) 
(and (or (<= (+ x2 0.9299333126) x6) (or (<= (+ x6 0.3086903716) x2) (or (>= (- y2 0.9053724537) y6) (or (>= (- y6 0.6738801274) y2))))) 
(and (or (<= (+ x2 0.9299333126) x7) (or (<= (+ x7 0.6215734289) x2) (or (>= (- y2 0.9053724537) y7) (or (>= (- y7 0.5949522647) y2))))) 
(and (or (<= (+ x2 0.9299333126) x8) (or (<= (+ x8 0.8433096649) x2) (or (>= (- y2 0.9053724537) y8) (or (>= (- y8 0.4862867915) y2))))) 
(and (or (<= (+ x2 0.9299333126) x9) (or (<= (+ x9 0.5914641207) x2) (or (>= (- y2 0.9053724537) y9) (or (>= (- y9 0.4580279909) y2))))) 
(and (or (<= (+ x2 0.9299333126) x10) (or (<= (+ x10 0.0105070896) x2) (or (>= (- y2 0.9053724537) y10) (or (>= (- y10 0.3064897386) y2))))) 
(and (or (<= (+ x2 0.9299333126) x11) (or (<= (+ x11 0.9264465694) x2) (or (>= (- y2 0.9053724537) y11) (or (>= (- y11 0.1584771031) y2))))) 
(and (or (<= (+ x3 0.0410767547) x4) (or (<= (+ x4 0.3827800441) x3) (or (>= (- y3 0.8922831346) y4) (or (>= (- y4 0.8879901729) y3))))) 
(and (or (<= (+ x3 0.0410767547) x5) (or (<= (+ x5 0.1379633835) x3) (or (>= (- y3 0.8922831346) y5) (or (>= (- y5 0.8233343558) y3))))) 
(and (or (<= (+ x3 0.0410767547) x6) (or (<= (+ x6 0.3086903716) x3) (or (>= (- y3 0.8922831346) y6) (or (>= (- y6 0.6738801274) y3))))) 
(and (or (<= (+ x3 0.0410767547) x7) (or (<= (+ x7 0.6215734289) x3) (or (>= (- y3 0.8922831346) y7) (or (>= (- y7 0.5949522647) y3))))) 
(and (or (<= (+ x3 0.0410767547) x8) (or (<= (+ x8 0.8433096649) x3) (or (>= (- y3 0.8922831346) y8) (or (>= (- y8 0.4862867915) y3))))) 
(and (or (<= (+ x3 0.0410767547) x9) (or (<= (+ x9 0.5914641207) x3) (or (>= (- y3 0.8922831346) y9) (or (>= (- y9 0.4580279909) y3))))) 
(and (or (<= (+ x3 0.0410767547) x10) (or (<= (+ x10 0.0105070896) x3) (or (>= (- y3 0.8922831346) y10) (or (>= (- y10 0.3064897386) y3))))) 
(and (or (<= (+ x3 0.0410767547) x11) (or (<= (+ x11 0.9264465694) x3) (or (>= (- y3 0.8922831346) y11) (or (>= (- y11 0.1584771031) y3))))) 
(and (or (<= (+ x4 0.3827800441) x5) (or (<= (+ x5 0.1379633835) x4) (or (>= (- y4 0.8879901729) y5) (or (>= (- y5 0.8233343558) y4))))) 
(and (or (<= (+ x4 0.3827800441) x6) (or (<= (+ x6 0.3086903716) x4) (or (>= (- y4 0.8879901729) y6) (or (>= (- y6 0.6738801274) y4))))) 
(and (or (<= (+ x4 0.3827800441) x7) (or (<= (+ x7 0.6215734289) x4) (or (>= (- y4 0.8879901729) y7) (or (>= (- y7 0.5949522647) y4))))) 
(and (or (<= (+ x4 0.3827800441) x8) (or (<= (+ x8 0.8433096649) x4) (or (>= (- y4 0.8879901729) y8) (or (>= (- y8 0.4862867915) y4))))) 
(and (or (<= (+ x4 0.3827800441) x9) (or (<= (+ x9 0.5914641207) x4) (or (>= (- y4 0.8879901729) y9) (or (>= (- y9 0.4580279909) y4))))) 
(and (or (<= (+ x4 0.3827800441) x10) (or (<= (+ x10 0.0105070896) x4) (or (>= (- y4 0.8879901729) y10) (or (>= (- y10 0.3064897386) y4))))) 
(and (or (<= (+ x4 0.3827800441) x11) (or (<= (+ x11 0.9264465694) x4) (or (>= (- y4 0.8879901729) y11) (or (>= (- y11 0.1584771031) y4))))) 
(and (or (<= (+ x5 0.1379633835) x6) (or (<= (+ x6 0.3086903716) x5) (or (>= (- y5 0.8233343558) y6) (or (>= (- y6 0.6738801274) y5))))) 
(and (or (<= (+ x5 0.1379633835) x7) (or (<= (+ x7 0.6215734289) x5) (or (>= (- y5 0.8233343558) y7) (or (>= (- y7 0.5949522647) y5))))) 
(and (or (<= (+ x5 0.1379633835) x8) (or (<= (+ x8 0.8433096649) x5) (or (>= (- y5 0.8233343558) y8) (or (>= (- y8 0.4862867915) y5))))) 
(and (or (<= (+ x5 0.1379633835) x9) (or (<= (+ x9 0.5914641207) x5) (or (>= (- y5 0.8233343558) y9) (or (>= (- y9 0.4580279909) y5))))) 
(and (or (<= (+ x5 0.1379633835) x10) (or (<= (+ x10 0.0105070896) x5) (or (>= (- y5 0.8233343558) y10) (or (>= (- y10 0.3064897386) y5))))) 
(and (or (<= (+ x5 0.1379633835) x11) (or (<= (+ x11 0.9264465694) x5) (or (>= (- y5 0.8233343558) y11) (or (>= (- y11 0.1584771031) y5))))) 
(and (or (<= (+ x6 0.3086903716) x7) (or (<= (+ x7 0.6215734289) x6) (or (>= (- y6 0.6738801274) y7) (or (>= (- y7 0.5949522647) y6))))) 
(and (or (<= (+ x6 0.3086903716) x8) (or (<= (+ x8 0.8433096649) x6) (or (>= (- y6 0.6738801274) y8) (or (>= (- y8 0.4862867915) y6))))) 
(and (or (<= (+ x6 0.3086903716) x9) (or (<= (+ x9 0.5914641207) x6) (or (>= (- y6 0.6738801274) y9) (or (>= (- y9 0.4580279909) y6))))) 
(and (or (<= (+ x6 0.3086903716) x10) (or (<= (+ x10 0.0105070896) x6) (or (>= (- y6 0.6738801274) y10) (or (>= (- y10 0.3064897386) y6))))) 
(and (or (<= (+ x6 0.3086903716) x11) (or (<= (+ x11 0.9264465694) x6) (or (>= (- y6 0.6738801274) y11) (or (>= (- y11 0.1584771031) y6))))) 
(and (or (<= (+ x7 0.6215734289) x8) (or (<= (+ x8 0.8433096649) x7) (or (>= (- y7 0.5949522647) y8) (or (>= (- y8 0.4862867915) y7))))) 
(and (or (<= (+ x7 0.6215734289) x9) (or (<= (+ x9 0.5914641207) x7) (or (>= (- y7 0.5949522647) y9) (or (>= (- y9 0.4580279909) y7))))) 
(and (or (<= (+ x7 0.6215734289) x10) (or (<= (+ x10 0.0105070896) x7) (or (>= (- y7 0.5949522647) y10) (or (>= (- y10 0.3064897386) y7))))) 
(and (or (<= (+ x7 0.6215734289) x11) (or (<= (+ x11 0.9264465694) x7) (or (>= (- y7 0.5949522647) y11) (or (>= (- y11 0.1584771031) y7))))) 
(and (or (<= (+ x8 0.8433096649) x9) (or (<= (+ x9 0.5914641207) x8) (or (>= (- y8 0.4862867915) y9) (or (>= (- y9 0.4580279909) y8))))) 
(and (or (<= (+ x8 0.8433096649) x10) (or (<= (+ x10 0.0105070896) x8) (or (>= (- y8 0.4862867915) y10) (or (>= (- y10 0.3064897386) y8))))) 
(and (or (<= (+ x8 0.8433096649) x11) (or (<= (+ x11 0.9264465694) x8) (or (>= (- y8 0.4862867915) y11) (or (>= (- y11 0.1584771031) y8))))) 
(and (or (<= (+ x9 0.5914641207) x10) (or (<= (+ x10 0.0105070896) x9) (or (>= (- y9 0.4580279909) y10) (or (>= (- y10 0.3064897386) y9))))) 
(and (or (<= (+ x9 0.5914641207) x11) (or (<= (+ x11 0.9264465694) x9) (or (>= (- y9 0.4580279909) y11) (or (>= (- y11 0.1584771031) y9))))) 
(and (or (<= (+ x10 0.0105070896) x11) (or (<= (+ x11 0.9264465694) x10) (or (>= (- y10 0.3064897386) y11) (or (>= (- y11 0.1584771031) y10))))) )))))))))))))))))))))))))))))))))))))))))))))))))))))))))))))))))))))))))))))))))))))))))))))))))))))))))))))))))))))))))))))))))))))))))))))))))))))))))))
(minimize c)
(check-sat)
(get-objectives)
(exit)
